Route #1: 77 44 23 64 11 1 52 21 
Route #2: 9 48 59 4 36 41 14 6 
Route #3: 49 5 65 75 70 57 
Route #4: 24 43 45 31 73 76 32 37 30 
Route #5: 8 51 46 71 15 56 17 38 
Route #6: 50 13 61 3 34 12 7 29 
Route #7: 2 27 63 47 72 58 
Route #8: 55 35 33 39 28 19 74 
Route #9: 42 66 62 20 54 22 67 69 
Route #10: 26 40 25 18 10 53 68 60 16 
cost 1575.62